%mem=20GB
%NProcShared=6
#P b2plypd3/cc-pvtz
# SCF=(xqc)
# POpt=(CalcFC,TS,NoEigen,MaxCycles=60)
# int=ultrafine

comment: 

0 2
C  
C  1    R1 
C  1    R2  2    A2 
H  1    R3  2    A3  3    D3 
O  3    R4  1    A4  2    D4 
C  3    R5  1    A5  5    D5 
H  3    R6  1    A6  5    D6 
H  2    R7  1    A7  3    D7 
H  2    R8  1    A8  8    D8 
H  2    R9  1    A9  8    D9 
H  6   R10  3   A10  1   D10 
H  6   R11  3   A11  11   D11 
H  6   R12  3   A12  11   D12 
X  7   R13  3   A13  6   D13 
Cl 7   R14  14   A14  3   D14 
  Variables:
R1   =      1.4953
R2   =      1.4518
R3   =      1.0828
R4   =      1.3637
R5   =      1.486 
R6   =      1.5031
R7   =      1.087 
R8   =      1.0891
R9   =      1.09  
R10  =      1.0882
R11  =      1.0871
R12  =      1.092 
R14  =      1.4179
A2   =    123.9728
A3   =    116.9215
A4   =     63.8111
A5   =    135.6064
A6   =    108.6084
A7   =    111.35  
A8   =    110.474 
A9   =    109.6059
A10  =    109.8152
A11  =    110.0849
A12  =    110.5352
A14  =     86.7426
D3   =    198.7154
D4   =     99.5116
D5   =    247.7496
D6   =    105.9154
D7   =    339.5232
D8   =    239.1616
D9   =    120.3367
D10  =    148.3749
D11  =    119.6877
D12  =    240.3672
D14  =    177.6156
  Constants:
R13  =      1.0   
A13  =     90.0   
D13  =    310.8195
