% MaxCore 10000
! PAL8
! REVDSD-PBEP86-D4/2021 def2-TZVPP def2-TZVPP/c
! Opt
! NumFreq
* xyzfile 0 2 guess.xyz

