% MaxCore 10000
! PAL8
! REVDSD-PBEP86-D4/2021 def2-TZVPP def2-TZVPP/c
! TIGHT-NEB-TS
! NumFreq

%NEB 
 NEB_END_XYZFILE "well_c.xyz" 
END

* xyzfile 0 2 well_b.xyz
