%mem=20GB
%NProcShared=6
#P b2plypd3/cc-pvtz
# SCF=(xqc)
# Freq=()
# IOp(7/33=1)
# int=ultrafine

comment: 

0 2
 C                  0.833168   -0.744575   -0.299303                                            
 C                  1.749092   -1.304894    0.746766                                           
 C                  0.381358    0.652619   -0.336261                                           
 H                  0.185796   -1.474558   -0.774485                                           
 O                  1.392370    0.194447   -1.237915                                           
 C                  0.743926    1.703651    0.671490                                           
 H                 -0.564339    0.852016   -0.852117                                           
 H                  1.164271   -1.759912    1.546252                                           
 H                  2.382601   -2.076591    0.311537                                           
 H                  2.391933   -0.540684    1.172946                                           
 H                  1.688369    1.481977    1.159224                                           
 H                 -0.037761    1.773781    1.427223                                           
 H                  0.831602    2.672749    0.182576                                           
 Cl                -2.436864   -0.254421    0.060824
  Variables:
          
